Route #1: 1 57 34 16 2 32 65 28 36 61 1
Route #2: 1 39 54 24 40 12 4 26 20 64 37 33 1
Route #3: 1 5 48 44 67 66 8 1
Route #4: 1 47 14 15 63 6 55 22 31 17 45 1
Route #5: 1 50 23 3 38 42 9 1
Route #6: 1 35 49 46 13 60 10 62 1
Route #7: 1 18 53 21 27 52 58 59 25 7 1
Route #8: 1 19 11 29 43 30 68 1
Route #9: 1 56 41 51 1
cost 1468
